##TITLE=ETHYL BENZENE
##JCAMP-DX=4.24
##DATA TYPE=INFRARED SPECTRUM
##CLASS=COBLENTZ
##ORIGIN=STANDARD OIL OF OHIO
##OWNER=COBLENTZ SOCIETY
Collection (C) 2009 copyright by the U.S. Secretary of Commerce
on behalf of the United States of America. All rights reserved.
##DATE=Not specified, most likely prior to 1970
##NAMES=ethylbenzene
##CAS REGISTRY NO=100-41-4
##MOLFORM=C8 H10
##SOURCE REFERENCE=COBLENTZ NO. 3577
##$NIST SOURCE=COBLENTZ
##$NIST IMAGE=cob3577
##SPECTROMETER/DATA SYSTEM=PERKIN-ELMER
##STATE=LIQUID (NEAT)
##PATH LENGTH=0.0024 CM
##SAMPLING PROCEDURE=TRANSMISSION
##RESOLUTION=4
##DATA PROCESSING=DIGITIZED BY NIST FROM HARD COPY (FROM TWO SEGMENTS)
##XUNITS=1/CM
##YUNITS=TRANSMITTANCE
##XFACTOR=1.000000
##YFACTOR=1
##DELTAX=1.684920
##FIRSTX=589.426
##LASTX=3942.42
##FIRSTY=0.62
##MAXX=3942.42
##MINX=589.426
##MAXY=0.917
##MINY=0.016
##NPOINTS=1991
##XYDATA=(X++(Y..Y))
589.426000 0.6200 0.6150 0.6090 0.6070 0.6001
597.850600 0.5931 0.5832 0.5781 0.5731 0.5710
606.275200 0.5710 0.5700 0.5700 0.5700 0.5710
614.699800 0.5710 0.5710 0.5710 0.5729 0.5730
623.124400 0.5730 0.5749 0.5760 0.5779 0.5799
631.549000 0.5819 0.5868 0.5899 0.5948 0.5969
639.973600 0.5980 0.6018 0.6068 0.6089 0.6137
648.398200 0.6168 0.6217 0.6267 0.6364 0.6389
656.822800 0.6418 0.6439 0.6478 0.6489 0.6509
665.247400 0.6538 0.6540 0.6540 0.6540 0.6531
673.672000 0.6511 0.6510 0.6492 0.6462 0.6423
682.096600 0.6301 0.6180 0.5897 0.5525 0.5200
690.521200 0.4475 0.3808 0.3149 0.2627 0.2263
698.945800 0.1201 0.0577 0.0394 0.0308 0.0362
707.370400 0.0487 0.0689 0.1158 0.1639 0.1993
715.795000 0.2297 0.2569 0.2724 0.2740 0.2696
724.219600 0.2637 0.2586 0.2536 0.2486 0.2454
732.644200 0.2450 0.2433 0.2369 0.2317 0.2224
741.068800 0.2140 0.2008 0.1816 0.1686 0.1506
749.493400 0.1265 0.1041 0.0924 0.0936 0.1144
757.918000 0.1352 0.1671 0.2199 0.2629 0.3115
766.342600 0.3698 0.4128 0.4501 0.4736 0.4770
774.767200 0.4551 0.4257 0.3807 0.3269 0.3180
783.191800 0.3430 0.3903 0.4172 0.4490 0.4616
791.616400 0.4630 0.4605 0.4567 0.4593 0.4764
800.041000 0.4956 0.5251 0.5676 0.6092 0.6421
808.465600 0.6708 0.6972 0.7207 0.7420 0.7557
816.890200 0.7725 0.7840 0.7956 0.8076 0.8164
825.314800 0.8236 0.8290 0.8340 0.8366 0.8386
833.739400 0.8398 0.8416 0.8404 0.8392 0.8374
842.164000 0.8354 0.8303 0.8259 0.8227 0.8220
850.588600 0.8236 0.8263 0.8309 0.8343 0.8434
859.013200 0.8483 0.8513 0.8559 0.8601 0.8633
867.437800 0.8655 0.8675 0.8680 0.8680 0.8680
875.862400 0.8680 0.8680 0.8680 0.8665 0.8645
884.287000 0.8618 0.8580 0.8548 0.8518 0.8480
892.711600 0.8433 0.8383 0.8355 0.8313 0.8241
901.136200 0.8154 0.8020 0.7856 0.7556 0.7004
909.560800 0.6202 0.5685 0.5726 0.6208 0.6826
917.985400 0.7367 0.7776 0.8109 0.8307 0.8435
926.410000 0.8506 0.8556 0.8599 0.8631 0.8654
934.834600 0.8660 0.8660 0.8660 0.8660 0.8660
943.259200 0.8660 0.8646 0.8640 0.8619 0.8596
951.683800 0.8576 0.8536 0.8499 0.8428 0.8380
960.108400 0.8301 0.8201 0.8067 0.7856 0.7583
968.533000 0.7341 0.7054 0.6836 0.6793 0.6920
976.957600 0.7074 0.7302 0.7524 0.7737 0.7857
985.382200 0.7946 0.7980 0.8013 0.8089 0.8185
993.806800 0.8253 0.8283 0.8297 0.8313 0.8333
1002.231400 0.8340 0.8327 0.8307 0.8268 0.8231
1010.656000 0.8207 0.8200 0.8200 0.8200 0.8187
1019.080600 0.8148 0.8098 0.8042 0.7995 0.7855
1027.505200 0.7660 0.7406 0.7111 0.6554 0.5727
1035.929800 0.4749 0.4360 0.4551 0.4768 0.4928
1044.354400 0.4990 0.5126 0.5518 0.6078 0.6493
1052.779000 0.6786 0.7076 0.7226 0.7250 0.7232
1061.203600 0.7178 0.7102 0.6956 0.6778 0.6650
1069.628200 0.6568 0.6570 0.6655 0.6817 0.7069
1078.052800 0.7366 0.7608 0.7761 0.7810 0.7781
1086.477400 0.7714 0.7622 0.7419 0.7168 0.6893
1094.902000 0.6605 0.6490 0.6702 0.7054 0.7393
1103.326600 0.7665 0.7884 0.7969 0.7926 0.7878
1111.751200 0.7804 0.7732 0.7710 0.7738 0.7865
1120.175800 0.8022 0.8201 0.8338 0.8424 0.8481
1128.600400 0.8506 0.8531 0.8551 0.8560 0.8560
1137.025000 0.8549 0.8529 0.8504 0.8490 0.8479
1145.449600 0.8470 0.8465 0.8449 0.8403 0.8354
1153.874200 0.8303 0.8234 0.8148 0.8085 0.8070
1162.298800 0.8086 0.8116 0.8177 0.8256 0.8290
1170.723400 0.8280 0.8260 0.8235 0.8195 0.8120
1179.148000 0.8025 0.7919 0.7855 0.7855 0.7870
1187.572600 0.7930 0.8024 0.8119 0.8204 0.8255
1195.997200 0.8309 0.8360 0.8419 0.8480 0.8500
1204.421800 0.8510 0.8524 0.8550 0.8574 0.8604
1212.846400 0.8630 0.8650 0.8660 0.8660 0.8660
1221.271000 0.8660 0.8660 0.8660 0.8660 0.8669
1229.695600 0.8671 0.8651 0.8631 0.8620 0.8606
1238.120200 0.8581 0.8556 0.8527 0.8492 0.8470
1246.544800 0.8457 0.8440 0.8440 0.8453 0.8470
1254.969400 0.8479 0.8490 0.8490 0.8490 0.8490
1263.394000 0.8490 0.8490 0.8490 0.8490 0.8490
1271.818600 0.8481 0.8470 0.8466 0.8443 0.8412
1280.243200 0.8396 0.8382 0.8349 0.8307 0.8273
1288.667800 0.8238 0.8200 0.8154 0.8118 0.8092
1297.092400 0.8068 0.8038 0.7996 0.7928 0.7852
1305.517000 0.7798 0.7764 0.7736 0.7714 0.7678
1313.941600 0.7652 0.7640 0.7620 0.7563 0.7508
1322.366200 0.7482 0.7447 0.7402 0.7382 0.7370
1330.790800 0.7378 0.7390 0.7398 0.7451 0.7572
1339.215400 0.7697 0.7822 0.7937 0.7954 0.7974
1347.640000 0.8011 0.8037 0.8068 0.8118 0.8150
1356.064600 0.8150 0.8143 0.8112 0.8063 0.8013
1364.489200 0.7921 0.7764 0.7624 0.7433 0.7177
1372.913800 0.6884 0.6592 0.6430 0.6393 0.6457
1381.338400 0.6537 0.6674 0.6794 0.6907 0.7063
1389.763000 0.7223 0.7332 0.7449 0.7532 0.7605
1398.187600 0.7685 0.7753 0.7786 0.7800 0.7800
1406.612200 0.7800 0.7794 0.7774 0.7754 0.7731
1415.036800 0.7701 0.7658 0.7582 0.7505 0.7425
1423.461400 0.7296 0.7225 0.7164 0.6972 0.6660
1431.886000 0.6764 0.7064 0.7161 0.7120 0.7044
1440.310600 0.6917 0.6633 0.6285 0.6187 0.5984
1448.735200 0.5586 0.5140 0.4446 0.3890 0.3324
1457.159800 0.2206 0.1471 0.0916 0.1561 0.2146
1465.584400 0.2540 0.2570 0.2604 0.2860 0.3492
1474.009000 0.4108 0.4543 0.5144 0.5767 0.6334
1482.433600 0.6545 0.6643 0.6813 0.6850 0.6828
1490.858200 0.6728 0.6502 0.5890 0.5053 0.4072
1499.282800 0.2304 0.1218 0.1263 0.1650 0.2228
1507.707400 0.3049 0.4191 0.5997 0.6866 0.7640
1516.132000 0.8072 0.8085 0.8116 0.8188 0.8261
1524.556600 0.8326 0.8431 0.8470 0.8478 0.8510
1532.981200 0.8510 0.8510 0.8506 0.8490 0.8490
1541.405800 0.8486 0.8470 0.8470 0.8474 0.8500
1549.830400 0.8544 0.8570 0.8612 0.8620 0.8624
1558.255000 0.8640 0.8640 0.8640 0.8640 0.8640
1566.679600 0.8644 0.8664 0.8680 0.8680 0.8676
1575.104200 0.8651 0.8607 0.8590 0.8578 0.8515
1583.528800 0.8454 0.8258 0.8187 0.8097 0.7928
1591.953400 0.7657 0.7638 0.7624 0.7585 0.7535
1600.378000 0.7369 0.7219 0.7006 0.6701 0.6298
1608.802600 0.5790 0.5144 0.4297 0.3360 0.3537
1617.227200 0.4857 0.6216 0.7185 0.7752 0.8053
1625.651800 0.8308 0.8561 0.8575 0.8620 0.8696
1634.076400 0.8742 0.8763 0.8781 0.8790 0.8790
1642.501000 0.8790 0.8790 0.8790 0.8790 0.8790
1650.925600 0.8790 0.8789 0.8780 0.8780 0.8780
1659.350200 0.8780 0.8780 0.8780 0.8780 0.8783
1667.774800 0.8810 0.8812 0.8833 0.8864 0.8901
1676.199400 0.8910 0.8910 0.8910 0.8910 0.8910
1684.624000 0.8912 0.8930 0.8932 0.8950 0.8952
1693.048600 0.8980 0.8980 0.8980 0.8979 0.8958
1701.473200 0.8930 0.8930 0.8931 0.8951 0.8963
1709.897800 0.9000 0.9000 0.9000 0.9000 0.9000
1718.322400 0.9000 0.9000 0.9000 0.9000 0.9000
1726.747000 0.9000 0.8999 0.8980 0.8980 0.8980
1735.171600 0.8979 0.8947 0.8875 0.8758 0.8704
1743.596200 0.8539 0.8508 0.8458 0.8396 0.8250
1752.020800 0.8240 0.8251 0.8272 0.8344 0.8524
1760.445400 0.8692 0.8791 0.8841 0.8901 0.8980
1768.870000 0.9000 0.9010 0.9010 0.9010 0.9000
1777.294600 0.9000 0.9000 0.8980 0.8960 0.8960
1785.719200 0.8950 0.8950 0.8960 0.8980 0.8980
1794.143800 0.8960 0.8930 0.8910 0.8812 0.8692
1802.568400 0.8573 0.8402 0.8272 0.8005 0.7814
1810.993000 0.7742 0.7740 0.7779 0.7858 0.8015
1819.417600 0.8213 0.8337 0.8505 0.8558 0.8589
1827.842200 0.8619 0.8658 0.8689 0.8776 0.8828
1836.266800 0.8897 0.8977 0.8999 0.9029 0.9049
1844.691400 0.9050 0.9050 0.9050 0.9031 0.9011
1853.116000 0.9001 0.8981 0.8961 0.8932 0.8883
1861.540600 0.8815 0.8763 0.8695 0.8579 0.8431
1869.965200 0.8189 0.8012 0.7703 0.7597 0.7627
1878.389800 0.7722 0.7960 0.8062 0.8170 0.8307
1886.814400 0.8320 0.8210 0.8154 0.8150 0.8168
1895.239000 0.8261 0.8388 0.8544 0.8722 0.8821
1903.663600 0.8902 0.8973 0.8980 0.8998 0.9000
1912.088200 0.9000 0.9000 0.9000 0.9000 0.9000
1920.512800 0.9000 0.9000 0.8982 0.8962 0.8951
1928.937400 0.8915 0.8866 0.8816 0.8784 0.8737
1937.362000 0.8669 0.8616 0.8488 0.8383 0.8197
1945.786600 0.7945 0.7720 0.7621 0.7533 0.7392
1954.211200 0.7455 0.7504 0.7742 0.7883 0.8054
1962.635800 0.8165 0.8231 0.8248 0.8250 0.8267
1971.060400 0.8287 0.8341 0.8451 0.8554 0.8671
1979.485000 0.8774 0.8848 0.8943 0.8960 0.8977
1987.909600 0.8980 0.8963 0.8960 0.8977 0.8980
1996.334200 0.8980 0.8996 0.9008 0.9010 0.9010
2004.758800 0.9043 0.9050 0.9050 0.9091 0.9116
2013.183400 0.9120 0.9120 0.9120 0.9120 0.9120
2021.608000 0.9120 0.9120 0.9120 0.9120 0.9104
2030.032600 0.9100 0.9100 0.9100 0.9100 0.9100
2038.457200 0.9100 0.9100 0.9100 0.9100 0.9100
2046.881800 0.9100 0.9116 0.9128 0.9130 0.9130
2055.306400 0.9130 0.9163 0.9170 0.9170 0.9170
2063.731000 0.9170 0.9170 0.9170 0.9154 0.9166
2072.155600 0.9170 0.9170 0.9170 0.9154 0.9150
2080.580200 0.9150 0.9166 0.9170 0.9170 0.9170
2089.004800 0.9170 0.9170 0.9170 0.9170 0.9170
2097.429400 0.9170 0.9170 0.9170 0.9170 0.9170
2105.854000 0.9154 0.9150 0.9150 0.9150 0.9150
2114.278600 0.9150 0.9150 0.9150 0.9150 0.9150
2122.703200 0.9150 0.9150 0.9150 0.9150 0.9134
2131.127800 0.9130 0.9130 0.9130 0.9130 0.9130
2139.552400 0.9130 0.9130 0.9130 0.9130 0.9130
2147.977000 0.9130 0.9130 0.9130 0.9130 0.9130
2156.401600 0.9130 0.9130 0.9130 0.9130 0.9130
2164.826200 0.9130 0.9122 0.9120 0.9120 0.9120
2173.250800 0.9128 0.9130 0.9130 0.9130 0.9130
2181.675400 0.9130 0.9130 0.9130 0.9130 0.9130
2190.100000 0.9130 0.9130 0.9130 0.9130 0.9122
2198.524600 0.9128 0.9122 0.9120 0.9120 0.9120
2206.949200 0.9120 0.9120 0.9104 0.9100 0.9100
2215.373800 0.9084 0.9080 0.9064 0.9060 0.9060
2223.798400 0.9060 0.9060 0.9060 0.9060 0.9052
2232.223000 0.9050 0.9050 0.9058 0.9060 0.9060
2240.647600 0.9060 0.9060 0.9060 0.9076 0.9080
2249.072200 0.9080 0.9080 0.9080 0.9080 0.9080
2257.496800 0.9080 0.9096 0.9100 0.9100 0.9100
2265.921400 0.9100 0.9100 0.9084 0.9064 0.9060
2274.346000 0.9060 0.9052 0.9050 0.9050 0.9050
2282.770600 0.9050 0.9050 0.9050 0.9050 0.9050
2291.195200 0.9050 0.9050 0.9017 0.9002 0.9008
2299.619800 0.9026 0.9046 0.9058 0.9060 0.9060
2308.044400 0.9060 0.9060 0.9060 0.9060 0.9052
2316.469000 0.9017 0.9002 0.9000 0.8967 0.8960
2324.893600 0.8976 0.8980 0.8980 0.8980 0.8980
2333.318200 0.8980 0.8980 0.8955 0.8950 0.8934
2341.742800 0.8930 0.8930 0.8930 0.8946 0.8950
2350.167400 0.8975 0.8980 0.8996 0.9000 0.9000
2358.592000 0.9000 0.9000 0.9000 0.9000 0.9000
2367.016600 0.9000 0.9000 0.9041 0.9050 0.9050
2375.441200 0.9050 0.9050 0.9050 0.9050 0.9050
2383.865800 0.9058 0.9060 0.9060 0.9076 0.9096
2392.290400 0.9100 0.9100 0.9100 0.9100 0.9100
2400.715000 0.9100 0.9100 0.9100 0.9100 0.9100
2409.139600 0.9100 0.9084 0.9064 0.9060 0.9052
2417.564200 0.9050 0.9058 0.9060 0.9060 0.9060
2425.988800 0.9060 0.9060 0.9060 0.9052 0.9050
2434.413400 0.9050 0.9050 0.9050 0.9050 0.9050
2442.838000 0.9050 0.9058 0.9076 0.9080 0.9096
2451.262600 0.9116 0.9120 0.9120 0.9120 0.9120
2459.687200 0.9120 0.9120 0.9120 0.9120 0.9120
2468.111800 0.9120 0.9120 0.9120 0.9120 0.9120
2476.536400 0.9120 0.9120 0.9120 0.9120 0.9104
2484.961000 0.9100 0.9100 0.9100 0.9100 0.9100
2493.385600 0.9100 0.9100 0.9100 0.9100 0.9084
2501.810200 0.9055 0.8928 0.8719 0.8993 0.9060
2510.234800 0.9060 0.9060 0.9060 0.9060 0.9060
2518.659400 0.9060 0.9060 0.9060 0.9060 0.9060
2527.084000 0.9060 0.9035 0.9030 0.9030 0.9030
2535.508600 0.9014 0.9010 0.9010 0.9010 0.9010
2543.933200 0.9010 0.9010 0.9026 0.9030 0.9046
2552.357800 0.9058 0.9060 0.9060 0.9060 0.9060
2560.782400 0.9076 0.9080 0.9080 0.9080 0.9080
2569.207000 0.9080 0.9080 0.9080 0.9080 0.9080
2577.631600 0.9080 0.9080 0.9064 0.9052 0.9034
2586.056200 0.9014 0.9002 0.9000 0.9000 0.9000
2594.480800 0.9008 0.9010 0.9010 0.9010 0.9010
2602.905400 0.9010 0.9002 0.9000 0.8984 0.8980
2611.330000 0.8939 0.8914 0.8910 0.8910 0.8910
2619.754600 0.8926 0.8930 0.8946 0.8934 0.8930
2628.179200 0.8914 0.8902 0.8884 0.8864 0.8844
2636.603800 0.8815 0.8810 0.8810 0.8810 0.8810
2645.028400 0.8826 0.8855 0.8876 0.8896 0.8949
2653.453000 0.8976 0.8980 0.8980 0.8996 0.9000
2661.877600 0.9000 0.9000 0.9000 0.9000 0.9000
2670.302200 0.9000 0.9000 0.9000 0.9000 0.9000
2678.726800 0.9000 0.9000 0.9000 0.9000 0.9000
2687.151400 0.9000 0.9000 0.9000 0.9000 0.9000
2695.576000 0.8984 0.8980 0.8996 0.9000 0.9000
2704.000600 0.9000 0.8984 0.8980 0.8980 0.8980
2712.425200 0.8980 0.8980 0.8964 0.8960 0.8960
2720.849800 0.8960 0.8960 0.8952 0.8917 0.8902
2729.274400 0.8851 0.8815 0.8794 0.8782 0.8764
2737.699000 0.8760 0.8760 0.8776 0.8780 0.8805
2746.123600 0.8826 0.8830 0.8838 0.8840 0.8840
2754.548200 0.8840 0.8840 0.8832 0.8830 0.8814
2762.972800 0.8810 0.8810 0.8794 0.8765 0.8744
2771.397400 0.8715 0.8694 0.8690 0.8665 0.8627
2779.822000 0.8612 0.8594 0.8565 0.8519 0.8477
2788.246600 0.8470 0.8446 0.8440 0.8440 0.8440
2796.671200 0.8440 0.8440 0.8440 0.8440 0.8440
2805.095800 0.8424 0.8404 0.8392 0.8374 0.8354
2813.520400 0.8342 0.8324 0.8304 0.8300 0.8292
2821.945000 0.8233 0.8187 0.8139 0.8089 0.8031
2830.369600 0.7987 0.7881 0.7819 0.7712 0.7625
2838.794200 0.7536 0.7414 0.7308 0.7208 0.7149
2847.218800 0.7124 0.7005 0.6832 0.6661 0.6458
2855.643400 0.6273 0.6060 0.5757 0.5436 0.5150
2864.068000 0.4853 0.4562 0.4289 0.4052 0.3740
2872.492600 0.3459 0.3230 0.3091 0.3004 0.2834
2880.917200 0.2619 0.2334 0.2116 0.1965 0.1965
2889.341800 0.2060 0.2325 0.2635 0.2937 0.3286
2897.766400 0.3539 0.3580 0.3572 0.3496 0.3316
2906.191000 0.3206 0.3190 0.3206 0.3251 0.3359
2914.615600 0.3479 0.3566 0.3580 0.3514 0.3418
2923.040200 0.3302 0.3166 0.3033 0.2870 0.2725
2931.464800 0.2552 0.2364 0.2125 0.1859 0.1630
2939.889400 0.1255 0.0959 0.0869 0.0819 0.0876
2948.314000 0.1104 0.1396 0.1696 0.2004 0.2297
2956.738600 0.2473 0.2598 0.2620 0.2521 0.2319
2965.163200 0.2042 0.1588 0.1098 0.0674 0.0412
2973.587800 0.0272 0.0193 0.0164 0.0160 0.0176
2982.012400 0.0221 0.0271 0.0452 0.0736 0.1175
2990.437000 0.1620 0.2035 0.2488 0.2834 0.3277
2998.861600 0.3680 0.4029 0.4352 0.4664 0.4769
3007.286200 0.4813 0.4804 0.4718 0.4684 0.4680
3015.710800 0.4680 0.4754 0.4795 0.4784 0.4698
3024.135400 0.4541 0.4306 0.4038 0.3586 0.2957
3032.560000 0.2421 0.1887 0.1265 0.1011 0.0800
3040.984600 0.0760 0.0948 0.1270 0.1725 0.2180
3049.409200 0.2762 0.3593 0.3947 0.4416 0.4682
3057.833800 0.4843 0.4886 0.4857 0.4792 0.4698
3066.258400 0.4540 0.4362 0.4051 0.3810 0.3214
3074.683000 0.2812 0.2611 0.2671 0.2937 0.3549
3083.107600 0.4081 0.4507 0.4678 0.4757 0.4770
3091.532200 0.4615 0.4417 0.4240 0.4111 0.4106
3099.956800 0.4373 0.4873 0.5437 0.5917 0.6303
3108.381400 0.6722 0.7061 0.7120 0.7079 0.6971
3116.806000 0.6851 0.6830 0.6953 0.7136 0.7416
3125.230600 0.7723 0.7960 0.8099 0.8227 0.8324
3133.655200 0.8381 0.8456 0.8486 0.8531 0.8565
3142.079800 0.8586 0.8606 0.8635 0.8640 0.8656
3150.504400 0.8660 0.8660 0.8660 0.8660 0.8660
3158.929000 0.8660 0.8660 0.8660 0.8660 0.8660
3167.353600 0.8660 0.8660 0.8660 0.8660 0.8660
3175.778200 0.8676 0.8680 0.8688 0.8706 0.8710
3184.202800 0.8710 0.8726 0.8730 0.8738 0.8740
3192.627400 0.8740 0.8756 0.8776 0.8788 0.8790
3201.052000 0.8790 0.8790 0.8806 0.8810 0.8810
3209.476600 0.8826 0.8838 0.8840 0.8856 0.8860
3217.901200 0.8876 0.8896 0.8908 0.8943 0.8958
3226.325800 0.8960 0.8976 0.8980 0.8980 0.8980
3234.750400 0.8980 0.8980 0.8980 0.8980 0.8980
3243.175000 0.8980 0.8980 0.8980 0.8980 0.8980
3251.599600 0.8980 0.8980 0.8980 0.8980 0.8980
3260.024200 0.8980 0.8980 0.8996 0.9000 0.9000
3268.448800 0.9000 0.9000 0.9000 0.9000 0.9000
3276.873400 0.9000 0.9000 0.9008 0.9010 0.9010
3285.298000 0.9010 0.9010 0.9010 0.9010 0.9010
3293.722600 0.9010 0.9010 0.9010 0.9010 0.9026
3302.147200 0.9014 0.9010 0.9010 0.9010 0.9010
3310.571800 0.9010 0.9010 0.9002 0.9000 0.9000
3318.996400 0.9000 0.9000 0.9000 0.9000 0.9000
3327.421000 0.9000 0.9000 0.9000 0.9000 0.9000
3335.845600 0.9000 0.9000 0.9000 0.9000 0.9000
3344.270200 0.9000 0.9008 0.9010 0.9010 0.9002
3352.694800 0.9000 0.9000 0.9000 0.9000 0.9000
3361.119400 0.9000 0.9000 0.9000 0.9000 0.9000
3369.544000 0.9000 0.9000 0.9000 0.9000 0.9000
3377.968600 0.9000 0.9000 0.9000 0.9000 0.9000
3386.393200 0.9000 0.9000 0.9000 0.9000 0.9000
3394.817800 0.9000 0.9000 0.9000 0.9000 0.9000
3403.242400 0.9000 0.8984 0.8980 0.8980 0.8980
3411.667000 0.8980 0.8980 0.8980 0.8964 0.8960
3420.091600 0.8960 0.8960 0.8960 0.8960 0.8960
3428.516200 0.8960 0.8960 0.8960 0.8960 0.8960
3436.940800 0.8952 0.8958 0.8960 0.8960 0.8960
3445.365400 0.8960 0.8960 0.8960 0.8960 0.8960
3453.790000 0.8960 0.8952 0.8950 0.8950 0.8950
3462.214600 0.8950 0.8950 0.8950 0.8950 0.8950
3470.639200 0.8950 0.8934 0.8930 0.8930 0.8930
3479.063800 0.8914 0.8910 0.8910 0.8902 0.8900
3487.488400 0.8900 0.8900 0.8900 0.8900 0.8884
3495.913000 0.8880 0.8880 0.8880 0.8880 0.8880
3504.337600 0.8864 0.8860 0.8860 0.8860 0.8860
3512.762200 0.8860 0.8860 0.8860 0.8860 0.8860
3521.186800 0.8860 0.8860 0.8860 0.8860 0.8860
3529.611400 0.8876 0.8880 0.8880 0.8880 0.8880
3538.036000 0.8896 0.8908 0.8926 0.8930 0.8946
3546.460600 0.8950 0.8958 0.8960 0.8960 0.8960
3554.885200 0.8960 0.8960 0.8960 0.8960 0.8960
3563.309800 0.8960 0.8960 0.8960 0.8952 0.8934
3571.734400 0.8930 0.8930 0.8930 0.8930 0.8930
3580.159000 0.8914 0.8910 0.8902 0.8900 0.8884
3588.583600 0.8880 0.8880 0.8880 0.8880 0.8896
3597.008200 0.8900 0.8900 0.8900 0.8900 0.8900
3605.432800 0.8900 0.8900 0.8884 0.8880 0.8896
3613.857400 0.8900 0.8900 0.8900 0.8900 0.8900
3622.282000 0.8900 0.8900 0.8884 0.8880 0.8880
3630.706600 0.8880 0.8880 0.8880 0.8880 0.8880
3639.131200 0.8880 0.8880 0.8880 0.8880 0.8880
3647.555800 0.8864 0.8860 0.8860 0.8860 0.8860
3655.980400 0.8860 0.8860 0.8860 0.8860 0.8860
3664.405000 0.8876 0.8880 0.8880 0.8880 0.8864
3672.829600 0.8860 0.8860 0.8860 0.8860 0.8860
3681.254200 0.8876 0.8880 0.8880 0.8880 0.8864
3689.678800 0.8860 0.8860 0.8860 0.8876 0.8864
3698.103400 0.8860 0.8860 0.8860 0.8860 0.8860
3706.528000 0.8860 0.8860 0.8860 0.8860 0.8860
3714.952600 0.8876 0.8880 0.8880 0.8880 0.8880
3723.377200 0.8880 0.8880 0.8880 0.8880 0.8880
3731.801800 0.8880 0.8880 0.8880 0.8880 0.8880
3740.226400 0.8880 0.8880 0.8880 0.8880 0.8880
3748.651000 0.8880 0.8880 0.8880 0.8864 0.8860
3757.075600 0.8860 0.8860 0.8860 0.8860 0.8860
3765.500200 0.8876 0.8880 0.8880 0.8880 0.8880
3773.924800 0.8880 0.8864 0.8860 0.8860 0.8860
3782.349400 0.8860 0.8860 0.8860 0.8860 0.8860
3790.774000 0.8860 0.8860 0.8844 0.8840 0.8840
3799.198600 0.8840 0.8832 0.8814 0.8810 0.8794
3807.623200 0.8790 0.8790 0.8823 0.8830 0.8838
3816.047800 0.8840 0.8840 0.8840 0.8840 0.8840
3824.472400 0.8840 0.8840 0.8840 0.8840 0.8840
3832.897000 0.8840 0.8840 0.8840 0.8840 0.8840
3841.321600 0.8856 0.8860 0.8844 0.8840 0.8840
3849.746200 0.8840 0.8840 0.8856 0.8860 0.8860
3858.170800 0.8860 0.8860 0.8860 0.8860 0.8844
3866.595400 0.8840 0.8840 0.8840 0.8840 0.8840
3875.020000 0.8840 0.8840 0.8832 0.8830 0.8830
3883.444600 0.8830 0.8830 0.8830 0.8830 0.8830
3891.869200 0.8830 0.8830 0.8830 0.8814 0.8810
3900.293800 0.8810 0.8810 0.8810 0.8810 0.8810
3908.718400 0.8810 0.8810 0.8810 0.8810 0.8810
3917.143000 0.8810 0.8810 0.8794 0.8782 0.8780
3925.567600 0.8780 0.8780 0.8780 0.8780 0.8780
3933.992200 0.8788 0.8790 0.8790 0.8790 0.8790
3942.416800 0.8790
##END=
